data;


param d:= 100;
param r:=5;
param p:=0.840000;
param M:=1000;
param U:=
         1         1       -4.386862e-01
         2         1       -9.747214e-01
         3         1        4.283340e-01
         4         1        8.005682e-02
         5         1       -7.843544e-01
         6         1       -2.794743e-01
         7         1        6.891416e-01
         8         1        9.668200e-01
         9         1        8.461593e-01
        10         1        1.439135e-01
        11         1        6.831126e-01
        12         1       -4.570669e-01
        13         1        1.214076e+00
        14         1        5.972043e-01
        15         1        6.566103e-01
        16         1        8.483314e-01
        17         1        4.316109e-01
        18         1        4.159407e-01
        19         1       -8.368599e-01
        20         1        4.581390e-01
        21         1       -1.268863e-01
        22         1        5.054205e-01
        23         1        1.111633e+00
        24         1       -1.308687e+00
        25         1       -1.219070e+00
        26         1       -7.492132e-02
        27         1       -2.281674e+00
        28         1        2.332518e-01
        29         1       -2.574833e-01
        30         1       -1.180269e-01
        31         1        2.200362e-01
        32         1        4.353694e-01
        33         1       -5.549449e-01
        34         1       -1.159580e-01
        35         1        1.409600e+00
        36         1       -1.713023e+00
        37         1       -2.639777e-02
        38         1        3.493286e-01
        39         1       -1.469166e+00
        40         1        6.893302e-01
        41         1        7.139945e-01
        42         1        7.582298e-01
        43         1        7.233411e-02
        44         1       -3.924838e-01
        45         1       -1.188969e+00
        46         1       -1.274805e+00
        47         1       -7.471287e-01
        48         1       -4.350640e-01
        49         1       -1.669693e+00
        50         1       -1.521368e+00
        51         1        1.208092e+00
        52         1       -1.052413e+00
        53         1        9.792235e-01
        54         1       -1.840677e+00
        55         1        8.041868e-01
        56         1       -3.196549e-02
        57         1       -1.719154e+00
        58         1       -1.738793e+00
        59         1        7.430431e-01
        60         1       -7.123012e-01
        61         1       -7.851593e-02
        62         1        3.997802e-01
        63         1       -1.179200e+00
        64         1        7.726292e-01
        65         1       -1.833770e+00
        66         1       -9.837519e-01
        67         1       -1.070376e+00
        68         1        1.373241e+00
        69         1       -3.460957e-01
        70         1       -1.032051e+00
        71         1       -7.059899e-01
        72         1        1.882469e-01
        73         1       -1.248260e+00
        74         1       -1.012433e+00
        75         1       -1.828808e-01
        76         1        1.043672e+00
        77         1        1.206375e+00
        78         1        3.914698e-01
        79         1       -1.527094e-01
        80         1       -1.117724e+00
        81         1        8.331246e-01
        82         1        2.042991e-01
        83         1        9.623291e-01
        84         1        1.126977e-01
        85         1       -2.415957e+00
        86         1       -1.279948e+00
        87         1       -9.759063e-01
        88         1       -5.546399e-01
        89         1        1.093536e+00
        90         1        1.323779e+00
        91         1        1.309713e+00
        92         1        2.368192e-01
        93         1       -7.733698e-01
        94         1       -2.378506e+00
        95         1        2.335898e-01
        96         1        4.892112e-02
        97         1        4.187648e-01
        98         1        1.168772e+00
        99         1        1.371335e+00
       100         1       -1.125365e+00
         1         2       -1.021885e+00
         2         2        9.333218e-03
         3         2        1.148426e+00
         4         2        4.541565e-01
         5         2       -3.191625e-01
         6         2        1.126500e+00
         7         2       -1.047196e+00
         8         2       -7.496226e-02
         9         2        1.797174e-01
        10         2       -6.095479e-01
        11         2       -1.029994e+00
        12         2        4.876906e-02
        13         2        8.219035e-02
        14         2       -9.814619e-02
        15         2        1.010598e+00
        16         2        3.332581e-01
        17         2        2.742491e-01
        18         2        4.289474e-01
        19         2       -2.356647e-01
        20         2       -1.665736e+00
        21         2        6.932794e-01
        22         2       -5.433788e-01
        23         2        1.405816e+00
        24         2       -5.080056e-01
        25         2       -4.070582e-01
        26         2       -1.637711e-01
        27         2       -1.316477e+00
        28         2        9.570631e-01
        29         2       -2.936271e-01
        30         2        5.391654e-01
        31         2        1.200868e+00
        32         2       -3.034011e-01
        33         2       -2.347888e+00
        34         2       -1.706783e-01
        35         2        8.396654e-01
        36         2       -1.163507e+00
        37         2       -2.112866e-01
        38         2        9.419997e-01
        39         2       -1.848829e+00
        40         2       -9.825520e-01
        41         2       -5.972725e-01
        42         2       -1.769355e-01
        43         2       -8.911598e-01
        44         2        1.098476e+00
        45         2       -1.682862e+00
        46         2       -6.246859e-01
        47         2       -1.154394e+00
        48         2       -3.879959e-01
        49         2        1.448241e+00
        50         2        9.707336e-01
        51         2       -1.025709e+00
        52         2       -7.277237e-02
        53         2        7.691792e-02
        54         2       -1.637306e+00
        55         2        1.259163e+00
        56         2        1.405943e+00
        57         2       -6.448160e-01
        58         2        4.531086e-02
        59         2       -1.732093e+00
        60         2        6.769437e-02
        61         2        7.719020e-02
        62         2       -1.608937e+00
        63         2        2.134024e-01
        64         2        1.703281e+00
        65         2        1.303034e+00
        66         2        1.228863e+00
        67         2       -2.810740e-01
        68         2        8.935364e-01
        69         2       -5.129045e-01
        70         2        2.086465e-02
        71         2        2.591275e-01
        72         2        1.495966e+00
        73         2       -6.598653e-01
        74         2        4.260552e-01
        75         2       -1.485866e+00
        76         2       -4.599422e-01
        77         2       -7.881643e-03
        78         2       -4.625596e-01
        79         2       -1.290303e+00
        80         2       -8.582038e-01
        81         2        7.771441e-01
        82         2        5.238917e-01
        83         2       -4.510662e-01
        84         2       -3.240068e-01
        85         2       -6.375137e-01
        86         2       -9.415441e-02
        87         2        9.634710e-01
        88         2        5.205747e-01
        89         2       -2.044669e+00
        90         2       -6.803844e-02
        91         2       -6.923989e-01
        92         2       -1.734378e+00
        93         2        1.330371e-01
        94         2        1.294410e+00
        95         2       -1.958293e+00
        96         2        6.996930e-01
        97         2       -3.577512e-02
        98         2        7.212457e-01
        99         2        4.736158e-01
       100         2       -3.971857e-01
         1         3        8.394091e-01
         2         3       -1.771323e+00
         3         3        1.831110e-02
         4         3        3.641651e-01
         5         3        5.315920e-01
         6         3       -4.220267e-01
         7         3       -7.536130e-01
         8         3       -6.928764e-01
         9         3       -6.364818e-01
        10         3        1.132205e+00
        11         3        1.268088e+00
        12         3        1.378949e+00
        13         3       -1.908708e-01
        14         3        1.390645e+00
        15         3       -1.635608e+00
        16         3       -6.550019e-01
        17         3       -5.591268e-01
        18         3        8.100703e-01
        19         3       -4.380922e-01
        20         3       -3.278614e-01
        21         3        4.755380e-01
        22         3        5.552088e-01
        23         3       -7.127356e-01
        24         3       -8.167476e-01
        25         3       -1.643251e+00
        26         3       -6.058199e-01
        27         3        1.592138e+00
        28         3        1.198022e+00
        29         3       -4.825451e-01
        30         3       -2.770331e-01
        31         3       -1.139220e+00
        32         3       -4.449248e-01
        33         3        3.752539e-01
        34         3       -2.721638e+00
        35         3        1.681502e+00
        36         3        4.609167e-01
        37         3       -2.557934e-02
        38         3       -1.874279e+00
        39         3       -2.155842e+00
        40         3       -1.581768e+00
        41         3        7.777735e-01
        42         3       -1.050395e+00
        43         3       -3.138508e-01
        44         3        3.438615e-01
        45         3        6.732577e-01
        46         3        8.748012e-02
        47         3        9.863260e-02
        48         3       -8.860619e-01
        49         3       -1.719756e+00
        50         3       -5.672695e-01
        51         3        4.671938e-01
        52         3        2.286506e-01
        53         3        5.134749e-01
        54         3       -4.891281e-01
        55         3        6.738716e-01
        56         3        1.190929e+00
        57         3        1.229198e+00
        58         3       -7.391056e-01
        59         3        2.782758e-01
        60         3       -5.354668e-01
        61         3       -1.067288e+00
        62         3        5.859489e-01
        63         3       -1.181252e+00
        64         3        2.039456e-01
        65         3       -1.392606e+00
        66         3        1.456330e-01
        67         3        2.764054e-01
        68         3        2.952958e-01
        69         3       -2.966613e-01
        70         3       -1.547487e+00
        71         3        5.083624e-01
        72         3        2.507694e-01
        73         3        1.232330e+00
        74         3        2.186205e-01
        75         3       -1.545847e+00
        76         3        9.425388e-01
        77         3        4.694953e-03
        78         3       -6.702029e-02
        79         3       -7.519682e-02
        80         3       -7.555934e-01
        81         3       -1.628382e+00
        82         3       -2.341753e-01
        83         3       -4.340395e-01
        84         3        5.079569e-01
        85         3       -5.052991e-01
        86         3        1.412493e+00
        87         3       -1.277129e+00
        88         3       -1.154064e+00
        89         3        9.921789e-01
        90         3        2.728208e-01
        91         3        4.602837e-01
        92         3        1.410515e+00
        93         3       -1.238280e+00
        94         3        1.157011e+00
        95         3       -1.071909e+00
        96         3        1.008426e+00
        97         3       -4.976129e-01
        98         3        7.648885e-01
        99         3        1.607330e+00
       100         3       -1.055419e+00
         1         4        2.084679e-01
         2         4       -2.019469e-01
         3         4       -2.975092e+00
         4         4        2.533230e-01
         5         4        6.090490e-01
         6         4        4.627655e-01
         7         4        1.375935e-01
         8         4        1.661557e+00
         9         4       -7.859821e-02
        10         4        1.218178e+00
        11         4       -5.587879e-01
        12         4        4.909460e-01
        13         4        8.564302e-01
        14         4       -6.202782e-01
        15         4        1.680592e+00
        16         4       -6.112749e-01
        17         4       -8.606806e-01
        18         4        4.559571e-01
        19         4        7.888371e-01
        20         4        3.877965e-01
        21         4        3.567713e-01
        22         4       -1.548185e-01
        23         4        6.432810e-01
        24         4        1.829150e+00
        25         4       -8.247848e-01
        26         4       -1.498570e-01
        27         4        4.230323e-01
        28         4        6.926005e-01
        29         4       -1.869741e-01
        30         4        5.373193e-01
        31         4        1.166601e+00
        32         4        5.185682e-02
        33         4       -4.424107e-01
        34         4        6.512301e-01
        35         4        3.413655e-01
        36         4        6.224025e-01
        37         4        2.102203e+00
        38         4       -4.052578e-01
        39         4        9.027725e-02
        40         4       -2.023039e+00
        41         4       -4.037889e-01
        42         4       -1.226210e+00
        43         4        5.317861e-01
        44         4        8.993731e-01
        45         4        1.945190e-01
        46         4       -8.511728e-01
        47         4       -2.942056e-01
        48         4       -4.812284e-01
        49         4        8.372406e-01
        50         4        3.061951e-01
        51         4        5.504645e-01
        52         4       -3.502519e-01
        53         4       -8.329368e-01
        54         4       -5.282641e-02
        55         4        1.076374e+00
        56         4        8.487855e-01
        57         4       -1.733025e+00
        58         4       -1.813787e+00
        59         4        2.643520e-01
        60         4       -6.588972e-01
        61         4       -2.330992e+00
        62         4        1.267864e+00
        63         4        6.208120e-01
        64         4       -3.563873e-01
        65         4       -5.701097e-01
        66         4        1.843325e-01
        67         4        9.116088e-01
        68         4       -1.949715e+00
        69         4        1.568817e+00
        70         4        8.386253e-01
        71         4        5.237461e-01
        72         4        2.605731e+00
        73         4       -1.576954e+00
        74         4       -2.679672e-01
        75         4       -4.244635e-01
        76         4       -1.201138e+00
        77         4        6.373045e-01
        78         4        3.657777e-01
        79         4        1.994201e+00
        80         4        1.330854e+00
        81         4       -5.619687e-01
        82         4       -1.101096e+00
        83         4       -6.758392e-01
        84         4        4.186861e-01
        85         4       -3.248863e-01
        86         4        7.683808e-01
        87         4        2.019521e+00
        88         4        9.690361e-02
        89         4        5.643115e-01
        90         4        3.459414e-01
        91         4        1.135070e+00
        92         4       -6.807915e-02
        93         4       -1.738873e+00
        94         4        4.354391e-01
        95         4       -1.488741e+00
        96         4        1.207595e+00
        97         4       -2.070791e+00
        98         4       -7.712114e-01
        99         4        3.559324e-01
       100         4        9.331579e-03
         1         5        1.106754e+00
         2         5        5.798443e-01
         3         5       -1.308573e+00
         4         5        4.198118e-01
         5         5       -4.268460e-01
         6         5        2.014782e-01
         7         5       -2.027814e-01
         8         5        1.532928e+00
         9         5       -4.985149e-01
        10         5       -1.862526e-01
        11         5       -1.939551e+00
        12         5        1.854043e-01
        13         5        3.010056e-01
        14         5        3.324897e-01
        15         5        2.738989e-01
        16         5       -4.279094e-01
        17         5        1.715214e+00
        18         5       -5.056291e-01
        19         5       -1.052579e+00
        20         5        7.828365e-02
        21         5        1.301674e+00
        22         5       -5.425451e-01
        23         5       -4.119301e-02
        24         5       -4.302975e-01
        25         5        1.096370e+00
        26         5       -1.477427e+00
        27         5        3.180663e-01
        28         5        1.656490e+00
        29         5       -2.247635e-02
        30         5        6.222728e-01
        31         5       -6.049277e-01
        32         5        1.018477e+00
        33         5        2.868732e-01
        34         5        1.782538e+00
        35         5       -4.810472e-01
        36         5        1.128265e+00
        37         5        5.278408e-01
        38         5       -6.869380e-01
        39         5        1.110728e+00
        40         5        1.757851e+00
        41         5       -6.711010e-01
        42         5        2.358280e-01
        43         5        1.796301e+00
        44         5        1.100152e+00
        45         5       -1.734637e+00
        46         5        3.049867e-01
        47         5       -1.263350e+00
        48         5       -5.788278e-02
        49         5       -3.166870e+00
        50         5       -1.742474e+00
        51         5        1.279716e+00
        52         5        9.754249e-01
        53         5        6.160410e-01
        54         5        2.094927e-02
        55         5       -2.000466e+00
        56         5        4.615599e-01
        57         5        5.798888e-01
        58         5       -7.238563e-01
        59         5       -2.697757e-01
        60         5        1.838920e+00
        61         5        1.244498e-01
        62         5        1.199030e+00
        63         5        1.455659e+00
        64         5        1.252769e-01
        65         5        4.826875e-01
        66         5        2.136174e-01
        67         5       -6.731065e-01
        68         5       -7.019728e-03
        69         5        2.862145e-01
        70         5       -1.084928e+00
        71         5        1.902056e+00
        72         5       -7.290861e-01
        73         5       -1.615833e+00
        74         5       -6.405334e-01
        75         5        2.517221e+00
        76         5        5.904496e-01
        77         5        2.129532e-01
        78         5        1.457990e+00
        79         5        4.394967e-02
        80         5        8.397048e-01
        81         5        1.514491e+00
        82         5       -1.724684e+00
        83         5        3.010601e-01
        84         5       -1.842193e+00
        85         5       -1.116123e+00
        86         5       -2.855587e-01
        87         5       -8.624596e-01
        88         5        1.655726e+00
        89         5        3.005112e-01
        90         5       -3.907173e-01
        91         5        1.042245e-01
        92         5       -1.058907e+00
        93         5       -4.560720e-01
        94         5       -5.186202e-01
        95         5       -8.886934e-01
        96         5       -7.678419e-03
        97         5       -5.380069e-01
        98         5        1.117431e+00
        99         5       -5.077973e-02
       100         5       -1.735715e+00
;

param theta:=
    1        9.146377e-01
    2       -4.064664e-01
    3       -1.061164e+00
    4        5.798572e-01
    5        5.206766e-01
;
param X_true:=
    1       -1.787263e-01
    2        1.170113e+00
    3       -2.500590e+00
    4       -1.314127e-01
    5       -1.021339e+00
    6        1.076836e-01
    7        1.831298e+00
    8        3.411105e+00
    9        1.071663e+00
   10       -2.132205e-01
   11       -1.635962e+00
   12       -1.520197e+00
   13        1.933359e+00
   14       -1.074917e+00
   15        3.043815e+00
   16        7.599501e-01
   17        1.271176e+00
   18       -6.520725e-01
   19       -2.928936e-01
   20        1.707101e+00
   21       -1.748649e-02
   22       -2.788544e-01
   23        1.552534e+00
   24        7.124976e-01
   25        8.864746e-01
   26       -2.162448e-01
   27       -2.830438e+00
   28       -1.825885e-01
   29        2.776961e-01
   30        6.029094e-01
   31        1.283265e+00
   32        1.555283e+00
   33       -5.773236e-02
   34        4.158017e+00
   35       -8.907089e-01
   36       -6.346607e-01
   37        1.583296e+00
   38        1.331909e+00
   39        2.325188e+00
   40        2.450481e+00
   41       -5.130529e-01
   42        1.291329e+00
   43        2.005675e+00
   44       -7.547486e-02
   45       -1.907645e+00
   46       -1.339697e+00
   47       -1.147132e+00
   48        3.892825e-01
   49       -1.454341e+00
   50       -1.912749e+00
   51        2.010599e+00
   52       -8.727369e-01
   53        1.581403e-01
   54       -5.186211e-01
   55       -9.074851e-01
   56       -1.131684e+00
   57       -3.318721e+00
   58       -2.254199e+00
   59        1.100696e+00
   60        4.650804e-01
   61       -2.579147e-01
   62        1.757496e+00
   63        1.206047e+00
   64       -3.430070e-01
   65       -8.081498e-01
   66       -1.336018e+00
   67       -9.809734e-01
   68       -5.545672e-01
   69        1.265302e+00
   70        6.117747e-01
   71        3.984863e-03
   72        4.294807e-01
   73       -3.936552e+00
   74       -1.818752e+00
   75        3.141434e+00
   76       -2.475484e-01
   77        1.583361e+00
   78        1.588544e+00
   79        1.644694e+00
   80        1.336551e+00
   81        2.635325e+00
   82       -1.314951e+00
   83        1.289801e+00
   84       -1.020171e+00
   85       -2.183817e+00
   86       -2.334540e+00
   87        7.934252e-01
   88        1.423579e+00
   89        1.263172e+00
   90        9.476787e-01
   91        1.702969e+00
   92       -1.166783e+00
   93       -6.939947e-01
   94       -3.947381e+00
   95        8.211373e-01
   96       -6.142317e-01
   97       -5.547437e-01
   98        9.709124e-02
   99       -4.643539e-01
  100       -6.465657e-01
;
param X:=
    1        2.676216e-01
    2        1.938610e+00
    3       -2.500590e+00
    4       -1.127846e+00
    5       -1.659031e+00
    6        1.076836e-01
    7       -9.399507e-01
    8        8.100164e-01
    9        4.111294e-01
   10       -2.132205e-01
   11        3.762082e-01
   12        2.902969e-01
   13        1.324131e+00
   14       -6.788036e-01
   15        3.043815e+00
   16       -6.011603e-01
   17       -8.645282e-01
   18       -6.520725e-01
   19       -1.765534e+00
   20       -3.985276e-01
   21        8.819719e-01
   22        2.520374e-01
   23        7.520890e-01
   24       -6.212901e-01
   25       -6.872851e-01
   26       -5.044587e-01
   27       -5.126171e-01
   28        1.999372e+00
   29       -1.084817e+00
   30        2.757220e-01
   31        1.568758e+00
   32       -1.166540e-01
   33        4.196406e-01
   34        2.761504e-01
   35       -8.907089e-01
   36       -1.433308e+00
   37       -1.007249e+00
   38        1.169215e+00
   39        7.983640e-01
   40       -1.003769e+00
   41       -4.616809e-01
   42        1.291329e+00
   43        9.648006e-01
   44        3.272376e-01
   45       -6.381643e-01
   46       -5.525612e-02
   47       -1.147132e+00
   48       -1.431867e-01
   49        9.465057e-01
   50        6.090764e-01
   51        1.841530e-01
   52       -8.727369e-01
   53       -1.614075e+00
   54       -2.854892e+00
   55       -9.074851e-01
   56        5.696475e-02
   57        1.199422e+00
   58       -2.254199e+00
   59       -1.729610e-01
   60       -1.175768e+00
   61       -1.700142e+00
   62        1.757496e+00
   63       -6.566904e-02
   64        4.647115e-02
   65        9.595651e-01
   66       -1.336018e+00
   67        8.370177e-02
   68        1.911892e-02
   69       -1.922046e-01
   70        4.081883e-01
   71        1.639301e+00
   72        9.470629e-01
   73       -6.260084e-01
   74        6.271474e-01
   75        1.211926e+00
   76       -1.915170e+00
   77       -1.350668e+00
   78        4.745427e-01
   79        9.435847e-01
   80        2.868359e+00
   81        1.019772e+00
   82        7.513364e-01
   83        1.285107e+00
   84       -1.020171e+00
   85       -8.991957e-02
   86       -2.300643e+00
   87       -8.694638e-01
   88        4.534655e-01
   89        1.372948e+00
   90        1.032371e+00
   91       -4.554722e-01
   92       -9.506643e-01
   93        7.439818e-01
   94        1.296810e+00
   95        1.095872e+00
   96       -8.430815e-01
   97       -5.547437e-01
   98       -2.647123e-01
   99        2.752940e-01
  100        2.688751e+00
;
param outliervec:=
    1    1
    2    1
    3    0
    4    1
    5    1
    6    0
    7    1
    8    1
    9    1
   10    0
   11    1
   12    1
   13    1
   14    1
   15    0
   16    1
   17    1
   18    0
   19    1
   20    1
   21    1
   22    1
   23    1
   24    1
   25    1
   26    1
   27    1
   28    1
   29    1
   30    1
   31    1
   32    1
   33    1
   34    1
   35    0
   36    1
   37    1
   38    1
   39    1
   40    1
   41    1
   42    0
   43    1
   44    1
   45    1
   46    1
   47    0
   48    1
   49    1
   50    1
   51    1
   52    0
   53    1
   54    1
   55    0
   56    1
   57    1
   58    0
   59    1
   60    1
   61    1
   62    0
   63    1
   64    1
   65    1
   66    0
   67    1
   68    1
   69    1
   70    1
   71    1
   72    1
   73    1
   74    1
   75    1
   76    1
   77    1
   78    1
   79    1
   80    1
   81    1
   82    1
   83    1
   84    0
   85    1
   86    1
   87    1
   88    1
   89    1
   90    1
   91    1
   92    1
   93    1
   94    1
   95    1
   96    1
   97    0
   98    1
   99    1
  100    1
;